NAME: random96
TYPE: TSP
DIMENSION: 96
EDGE_WEIGHT_TYPE: EXPLICIT
EDGE_WEIGHT_FORMAT: FULL_MATRIX
EDGE_WEIGHT_SECTION
0 635 635 635 635 635 635 635 635 635 635 635 635 635 8 635 635 635 635 635 635 635 635 635 635 635 5 635 635 635 635 635 8 635 635 635 635 635 635 14 635 635 635 635 635 635 6 635 635 635 635 635 635 635 635 635 635 635 635 635 635 635 635 635 635 13 635 635 635 635 635 635 635 635 635 635 12 635 635 635 635 635 635 635 635 635 635 635 635 635 635 635 635 635 635 635
635 0 635 635 635 635 635 635 635 9 635 635 635 635 635 635 635 635 635 635 635 635 635 635 635 635 635 10 635 635 635 635 635 635 635 635 635 635 635 635 635 635 635 635 635 635 635 8 635 635 635 14 635 635 635 635 635 635 635 635 635 635 12 635 635 635 635 635 635 635 635 635 635 635 635 635 635 635 635 635 17 635 635 635 635 635 635 635 635 635 635 635 635 635 635 635
635 635 0 635 635 635 635 635 635 635 635 635 635 635 635 635 635 635 20 635 635 635 635 635 635 635 635 635 635 635 635 15 635 635 635 635 635 635 635 635 635 635 635 635 635 635 635 635 635 635 635 635 635 635 635 635 635 13 635 635 635 635 635 635 635 635 635 635 635 635 635 635 635 635 635 635 635 635 635 635 635 635 635 635 635 635 635 635 635 635 635 635 635 6 635 635
635 635 635 0 635 635 635 635 17 635 635 635 635 635 635 635 635 635 635 635 11 635 635 635 635 635 635 635 635 635 635 635 635 635 635 635 635 635 635 635 635 635 635 635 635 635 635 635 635 635 635 635 635 635 635 635 635 635 635 635 635 635 635 635 635 635 9 635 635 635 635 635 635 635 635 635 635 635 635 635 635 635 635 635 635 635 635 14 635 5 635 635 635 635 635 635
635 635 635 635 0 635 635 635 635 635 635 635 26 635 635 635 635 635 635 635 635 635 635 635 635 635 635 635 635 635 635 635 635 635 635 635 635 635 53 635 635 635 635 635 635 635 635 635 635 635 635 635 635 635 635 635 635 3 635 635 635 635 635 635 635 635 635 635 635 635 635 635 635 635 635 635 635 635 6 635 635 635 635 635 635 635 635 635 635 635 635 635 635 635 635 635
635 635 635 635 635 0 635 635 635 635 635 635 635 635 635 635 635 635 635 635 635 3 635 635 635 635 635 635 3 635 635 635 635 635 635 635 635 635 635 635 635 635 635 635 635 7 635 635 635 635 635 635 8 635 635 635 635 635 635 635 10 635 635 635 635 635 635 635 635 635 635 635 635 2 635 635 635 635 635 635 635 635 635 635 635 635 635 635 635 635 635 635 635 635 635 635
635 635 635 635 635 635 0 635 635 635 635 635 635 635 635 635 635 635 635 14 635 635 635 635 635 635 635 635 635 635 635 13 635 635 635 635 635 635 635 635 635 635 635 635 635 635 635 635 635 635 635 635 14 635 635 635 12 635 635 635 12 635 635 15 635 635 635 635 635 635 635 635 635 635 16 635 635 635 635 635 635 635 635 635 635 635 635 635 635 635 635 635 635 635 635 635
635 635 635 635 635 635 635 0 635 635 635 635 635 635 635 635 635 635 635 635 635 635 635 635 635 635 635 635 635 9 635 635 635 7 635 635 635 635 635 635 635 635 13 635 6 635 635 635 635 635 635 635 635 635 635 635 635 635 12 635 635 9 635 635 635 635 635 635 635 635 635 635 635 635 635 635 635 635 635 635 635 635 635 635 635 635 635 635 635 635 635 635 5 635 635 635
635 635 635 17 635 635 635 635 0 635 635 635 635 635 635 635 22 635 635 635 27 635 635 635 635 635 635 635 635 635 635 635 635 635 635 635 635 635 635 635 635 635 25 635 635 635 635 635 635 635 635 635 635 635 635 635 635 635 635 635 635 635 635 635 635 635 635 635 635 26 635 635 635 635 635 635 635 635 635 635 635 635 635 635 635 635 635 20 635 635 635 635 635 635 635 635
635 9 635 635 635 635 635 635 635 0 14 635 635 635 635 635 635 635 635 635 635 635 635 635 635 635 635 635 635 635 635 635 635 635 635 635 635 635 635 635 635 635 635 635 635 635 635 635 635 635 635 635 635 635 635 635 635 635 635 635 635 635 13 635 635 635 635 635 635 635 635 635 635 635 635 14 635 635 635 635 12 635 635 635 635 14 635 635 635 635 635 635 635 635 635 635
635 635 635 635 635 635 635 635 635 14 0 635 635 635 635 635 635 635 635 635 635 635 635 635 635 635 635 635 635 635 635 635 635 635 635 635 635 635 635 635 635 635 635 635 635 635 635 635 635 635 635 635 635 635 635 635 635 635 635 635 635 635 8 635 635 635 635 635 635 635 635 635 635 635 635 6 635 635 635 635 635 635 635 635 635 635 635 635 635 635 635 635 635 635 5 635
635 635 635 635 635 635 635 635 635 635 635 0 635 635 635 635 635 635 635 635 635 635 11 635 635 635 635 635 635 635 635 635 635 635 635 21 635 635 635 635 635 635 635 635 635 635 635 635 635 635 635 635 635 635 635 635 635 635 635 635 635 635 635 635 15 635 635 635 635 635 635 635 635 635 635 635 635 635 635 635 635 19 635 635 635 1 20 635 635 635 635 15 635 635 635 635
635 635 635 635 26 635 635 635 635 635 635 635 0 635 635 635 635 635 635 635 635 635 635 635 635 635 635 635 635 635 635 635 635 635 635 635 635 635 79 635 635 635 635 13 635 635 635 635 635 635 4 635 635 635 635 635 635 25 635 635 635 635 635 635 635 635 635 635 635 635 635 635 635 635 635 635 635 635 635 635 635 635 635 635 635 635 635 635 635 635 635 635 635 11 635 635
635 635 635 635 635 635 635 635 635 635 635 635 635 0 635 635 635 635 635 635 635 635 635 635 635 635 635 635 635 635 635 635 635 635 635 635 635 635 635 18 635 635 635 635 635 635 635 635 635 635 635 635 635 635 635 635 635 635 635 635 635 635 635 635 6 635 635 635 635 635 635 635 635 635 635 9 635 635 635 635 635 15 635 635 635 635 635 635 635 635 635 635 635 635 8 16
8 635 635 635 635 635 635 635 635 635 635 635 635 635 0 635 635 635 635 635 35 635 635 635 635 635 635 635 635 635 635 635 1 635 635 635 635 635 635 635 25 635 635 635 635 635 635 635 635 635 635 635 635 635 635 635 635 635 635 635 635 635 635 635 635 19 635 635 635 635 635 635 635 635 635 635 635 635 635 635 635 635 635 635 635 635 635 635 635 635 635 635 635 635 635 635
635 635 635 635 635 635 635 635 635 635 635 635 635 635 635 0 635 635 635 635 635 635 635 635 635 635 635 635 635 635 635 635 635 635 635 19 635 635 635 635 635 635 635 635 635 635 635 635 8 635 635 635 635 635 635 635 635 635 635 635 635 635 635 635 635 635 635 635 635 635 635 635 13 635 10 635 635 635 635 635 635 635 635 635 635 635 9 635 635 635 635 635 635 635 635 635
635 635 635 635 635 635 635 635 22 635 635 635 635 635 635 635 0 635 635 635 635 635 635 635 635 635 635 635 635 635 635 635 635 635 635 635 635 635 635 635 635 635 18 635 635 11 635 635 635 635 635 635 635 635 635 635 20 635 635 635 635 635 635 635 635 635 635 635 635 635 635 635 18 635 22 635 635 635 635 635 635 635 635 635 635 635 635 7 635 635 635 635 635 635 635 635
635 635 635 635 635 635 635 635 635 635 635 635 635 635 635 635 635 0 635 635 635 635 10 635 635 17 635 635 635 635 635 635 635 635 635 635 635 635 635 635 635 635 635 635 635 635 635 635 635 635 635 635 635 635 635 635 635 635 635 635 635 635 635 635 635 635 635 635 635 635 635 635 635 635 635 635 635 19 635 7 12 635 635 635 10 635 635 635 635 635 635 15 635 635 635 635
635 635 20 635 635 635 635 635 635 635 635 635 635 635 635 635 635 635 0 635 635 635 635 635 635 635 635 635 635 635 635 20 635 635 635 635 635 3 635 635 635 635 635 635 635 635 635 635 635 635 635 635 635 635 635 635 635 635 635 635 635 635 635 17 635 635 635 635 635 635 635 635 635 635 635 635 635 635 635 635 635 635 635 635 635 635 635 635 8 635 9 635 635 20 635 635
635 635 635 635 635 635 14 635 635 635 635 635 635 635 635 635 635 635 635 0 635 635 635 635 635 635 635 635 635 635 635 19 635 8 635 635 635 635 635 635 635 635 635 635 635 635 635 635 635 635 635 635 9 7 635 635 635 18 635 635 635 635 635 635 635 635 635 635 635 635 635 635 635 635 635 635 635 635 14 635 635 635 635 635 635 635 635 635 635 635 635 635 635 635 635 635
635 635 635 11 635 635 635 635 27 635 635 635 635 635 35 635 635 635 635 635 0 635 635 635 635 635 635 635 635 635 635 635 635 635 635 635 635 635 635 635 11 635 635 635 635 635 635 635 635 8 635 635 635 635 635 635 635 635 635 635 635 635 635 635 635 635 3 635 635 53 635 635 635 635 635 635 635 635 635 635 635 635 635 635 635 635 635 635 635 635 635 635 635 635 635 635
635 635 635 635 635 3 635 635 635 635 635 635 635 635 635 635 635 635 635 635 635 0 635 635 635 635 635 635 3 4 635 635 635 635 635 635 635 635 635 635 635 635 635 635 635 635 635 635 635 635 635 635 6 635 635 635 635 635 5 635 635 635 635 635 635 635 635 635 635 635 635 635 635 2 635 635 635 635 635 635 635 635 635 635 635 635 635 635 635 635 635 635 635 635 635 635
635 635 635 635 635 635 635 635 635 635 635 11 635 635 635 635 635 10 635 635 635 635 0 635 635 635 635 635 635 635 635 635 635 635 635 635 635 635 635 635 635 635 635 635 635 635 635 635 635 635 635 635 635 635 635 635 635 635 635 635 635 635 635 635 635 635 635 635 635 635 635 635 635 635 635 635 635 635 635 635 5 635 635 635 635 11 635 635 635 635 635 12 635 635 635 635
635 635 635 635 635 635 635 635 635 635 635 635 635 635 635 635 635 635 635 635 635 635 635 0 12 635 635 635 635 635 635 635 635 635 635 635 635 635 635 635 635 635 635 635 635 635 635 635 635 635 635 635 635 635 14 635 635 635 635 635 635 635 635 635 635 635 635 10 635 635 635 635 635 635 635 635 635 39 635 635 635 635 635 6 25 635 635 635 635 635 6 635 635 635 635 635
635 635 635 635 635 635 635 635 635 635 635 635 635 635 635 635 635 635 635 635 635 635 635 12 0 635 635 635 635 635 635 635 635 635 635 635 635 635 635 635 635 635 635 635 635 635 635 635 635 635 635 635 635 635 635 635 635 635 635 635 635 635 635 635 635 635 635 2 635 635 635 635 635 635 635 635 635 635 635 16 635 635 15 635 15 635 635 635 635 635 635 635 635 635 635 635
635 635 635 635 635 635 635 635 635 635 635 635 635 635 635 635 635 17 635 635 635 635 635 635 635 0 635 635 635 635 635 635 635 635 635 635 635 635 635 635 635 635 635 635 635 635 635 635 635 635 635 6 635 635 635 635 635 635 635 635 635 635 635 635 635 635 635 635 635 635 635 635 635 635 635 635 635 8 635 635 17 635 635 635 635 635 635 635 635 635 635 635 635 635 635 635
5 635 635 635 635 635 635 635 635 635 635 635 635 635 635 635 635 635 635 635 635 635 635 635 635 635 0 635 635 635 635 635 635 635 4 635 635 635 635 635 635 635 635 635 635 635 5 635 635 635 635 635 635 635 635 635 635 635 635 635 635 635 635 635 635 635 635 635 635 635 635 635 635 635 635 635 8 635 635 635 635 635 635 635 635 635 635 635 635 635 635 635 635 635 635 635
635 10 635 635 635 635 635 635 635 635 635 635 635 635 635 635 635 635 635 635 635 635 635 635 635 635 635 0 635 635 635 635 66 635 635 635 635 635 635 635 635 635 635 635 635 635 635 3 635 635 635 18 635 635 635 635 635 635 635 635 635 635 13 635 635 635 635 635 635 635 635 635 635 635 635 635 635 31 635 635 635 635 635 635 635 635 635 635 635 635 635 635 635 635 635 635
635 635 635 635 635 3 635 635 635 635 635 635 635 635 635 635 635 635 635 635 635 3 635 635 635 635 635 635 0 635 635 635 635 635 635 635 635 635 635 635 635 635 6 635 635 9 635 635 635 635 635 635 635 635 635 635 635 635 3 635 635 635 635 635 635 635 635 635 635 635 635 635 635 2 635 635 635 635 635 635 635 635 635 635 635 635 635 635 635 635 635 635 635 635 635 635
635 635 635 635 635 635 635 9 635 635 635 635 635 635 635 635 635 635 635 635 635 4 635 635 635 635 635 635 635 0 635 635 635 5 635 635 635 635 635 635 635 635 635 635 635 635 635 635 635 635 635 635 5 635 635 635 635 635 7 635 635 635 635 635 635 635 635 635 635 635 635 635 635 635 635 635 635 635 635 635 635 635 635 635 635 635 635 635 635 635 635 635 635 635 635 635
635 635 635 635 635 635 635 635 635 635 635 635 635 635 635 635 635 635 635 635 635 635 635 635 635 635 635 635 635 635 0 635 635 635 14 635 635 635 635 635 635 635 635 635 635 635 635 635 635 635 635 635 635 635 635 10 635 635 635 635 635 635 635 635 635 635 635 635 7 635 4 635 13 635 635 635 635 635 635 635 635 635 635 635 635 635 635 635 635 635 635 635 635 635 635 635
635 635 15 635 635 635 13 635 635 635 635 635 635 635 635 635 635 635 20 19 635 635 635 635 635 635 635 635 635 635 635 0 635 635 635 635 635 635 635 635 635 635 635 635 635 635 635 635 635 635 635 635 635 635 635 635 635 19 635 635 635 635 635 8 635 635 635 635 635 635 635 635 635 635 635 635 635 635 635 635 635 635 635 635 635 635 635 635 635 635 635 635 635 635 635 635
8 635 635 635 635 635 635 635 635 635 635 635 635 635 1 635 635 635 635 635 635 635 635 635 635 635 635 66 635 635 635 635 0 635 635 635 635 635 635 18 635 635 635 635 635 635 635 635 635 635 635 635 635 635 635 635 635 635 635 635 635 635 54 635 635 635 635 635 635 635 635 635 635 635 635 635 635 635 635 635 635 635 635 635 635 635 635 635 635 635 635 635 635 635 42 635
635 635 635 635 635 635 635 7 635 635 635 635 635 635 635 635 635 635 635 8 635 635 635 635 635 635 635 635 635 5 635 635 635 0 635 635 635 635 635 635 635 635 635 635 635 635 635 635 635 635 635 635 6 6 635 635 635 635 635 635 635 7 635 635 635 635 635 635 635 635 635 635 635 635 635 635 635 635 635 635 635 635 635 635 635 635 635 635 635 635 635 635 635 635 635 635
635 635 635 635 635 635 635 635 635 635 635 635 635 635 635 635 635 635 635 635 635 635 635 635 635 635 4 635 635 635 14 635 635 635 0 635 635 635 635 635 635 635 635 635 635 635 3 635 635 635 635 635 635 635 635 16 635 635 635 635 635 635 635 635 635 635 635 635 14 635 635 635 635 635 635 635 10 635 635 635 635 635 635 635 635 635 635 635 635 635 635 635 635 635 635 635
635 635 635 635 635 635 635 635 635 635 635 21 635 635 635 19 635 635 635 635 635 635 635 635 635 635 635 635 635 635 635 635 635 635 635 0 635 635 635 635 635 635 635 635 635 635 635 635 635 635 635 635 635 635 635 635 635 635 635 4 635 635 635 635 635 635 635 635 7 635 10 635 17 635 635 635 635 635 635 635 635 6 635 635 635 635 21 635 635 635 635 635 635 635 635 5
635 635 635 635 635 635 635 635 635 635 635 635 635 635 635 635 635 635 635 635 635 635 635 635 635 635 635 635 635 635 635 635 635 635 635 635 0 635 635 635 3 635 635 635 635 635 635 635 635 6 635 635 635 635 635 10 635 635 635 635 635 635 635 635 635 4 635 635 635 635 635 635 635 635 635 635 5 635 635 635 635 635 635 635 635 635 635 635 635 635 635 635 635 635 635 635
635 635 635 635 635 635 635 635 635 635 635 635 635 635 635 635 635 635 3 635 635 635 635 635 635 635 635 635 635 635 635 635 635 635 635 635 635 0 635 635 635 635 635 635 635 635 635 635 635 635 635 635 635 635 635 635 635 635 635 635 635 635 635 15 635 635 635 12 635 635 635 635 635 635 635 635 635 635 635 635 635 635 13 635 635 635 635 635 635 635 10 635 635 635 635 635
635 635 635 635 53 635 635 635 635 635 635 635 79 635 635 635 635 635 635 635 635 635 635 635 635 635 635 635 635 635 635 635 635 635 635 635 635 635 0 635 635 635 635 635 23 635 635 635 635 635 635 635 635 635 635 635 635 635 635 635 635 635 635 635 635 635 635 635 635 12 635 635 635 635 635 635 635 635 46 635 635 635 635 635 635 635 635 635 635 635 635 635 28 635 635 635
14 635 635 635 635 635 635 635 635 635 635 635 635 18 635 635 635 635 635 635 635 635 635 635 635 635 635 635 635 635 635 635 18 635 635 635 635 635 635 0 635 635 635 635 635 635 10 635 635 635 635 635 635 635 635 635 635 635 635 16 635 635 635 635 635 635 635 635 15 635 635 635 635 635 635 635 635 635 635 635 635 635 635 635 635 635 635 635 635 635 635 635 635 635 26 15
635 635 635 635 635 635 635 635 635 635 635 635 635 635 25 635 635 635 635 635 11 635 635 635 635 635 635 635 635 635 635 635 635 635 635 635 3 635 635 635 0 635 635 635 635 635 635 635 635 5 635 635 635 635 635 635 635 635 635 635 635 635 635 635 635 6 635 635 635 635 635 635 635 635 635 635 635 635 635 635 635 635 635 635 635 635 635 635 635 635 635 635 635 635 635 635
635 635 635 635 635 635 635 635 635 635 635 635 635 635 635 635 635 635 635 635 635 635 635 635 635 635 635 635 635 635 635 635 635 635 635 635 635 635 635 635 635 0 635 635 635 635 635 635 12 635 635 635 635 635 635 635 635 635 635 635 635 635 635 23 635 635 635 635 635 635 635 635 635 635 635 635 635 635 635 15 635 635 15 635 635 635 12 635 635 635 635 5 635 635 635 635
635 635 635 635 635 635 635 13 25 635 635 635 635 635 635 635 18 635 635 635 635 635 635 635 635 635 635 635 6 635 635 635 635 635 635 635 635 635 635 635 635 635 0 635 16 14 635 635 635 635 635 635 635 635 635 635 635 635 3 635 635 635 635 635 635 635 635 635 635 25 635 635 635 635 635 635 635 635 635 635 635 635 635 635 635 635 635 635 635 635 635 635 635 635 635 635
635 635 635 635 635 635 635 635 635 635 635 635 13 635 635 635 635 635 635 635 635 635 635 635 635 635 635 635 635 635 635 635 635 635 635 635 635 635 635 635 635 635 635 0 635 635 635 635 635 635 10 635 635 635 13 635 635 635 635 635 635 635 635 635 635 635 635 635 635 635 635 15 635 635 635 635 635 635 635 635 635 635 635 635 635 635 635 635 635 635 635 635 635 635 635 635
635 635 635 635 635 635 635 6 635 635 635 635 635 635 635 635 635 635 635 635 635 635 635 635 635 635 635 635 635 635 635 635 635 635 635 635 635 635 23 635 635 635 16 635 0 635 635 635 635 635 635 635 635 635 635 635 635 635 635 635 635 635 635 635 635 635 635 635 635 25 635 635 635 635 635 635 635 635 635 635 635 635 635 635 635 635 635 635 635 635 635 635 5 635 635 635
635 635 635 635 635 7 635 635 635 635 635 635 635 635 635 635 11 635 635 635 635 635 635 635 635 635 635 635 9 635 635 635 635 635 635 635 635 635 635 635 635 635 14 635 635 0 635 635 635 635 635 635 635 635 635 635 12 635 635 635 7 635 635 635 635 635 635 635 635 635 635 635 635 635 635 635 635 635 635 635 635 635 635 635 635 635 635 635 635 635 635 635 635 635 635 635
6 635 635 635 635 635 635 635 635 635 635 635 635 635 635 635 635 635 635 635 635 635 635 635 635 635 5 635 635 635 635 635 635 635 3 635 635 635 635 10 635 635 635 635 635 635 0 635 635 635 635 635 635 635 635 635 635 635 635 635 635 635 635 635 635 635 635 635 15 635 635 635 635 635 635 635 635 635 635 635 635 635 635 635 635 635 635 635 635 635 635 635 635 635 635 635
635 8 635 635 635 635 635 635 635 635 635 635 635 635 635 635 635 635 635 635 635 635 635 635 635 635 635 3 635 635 635 635 635 635 635 635 635 635 635 635 635 635 635 635 635 635 635 0 635 635 635 635 635 635 635 635 635 635 635 635 635 635 10 635 635 635 635 635 635 635 635 635 635 635 635 635 635 635 635 635 635 635 635 635 635 635 635 635 635 635 635 635 635 635 635 635
635 635 635 635 635 635 635 635 635 635 635 635 635 635 635 8 635 635 635 635 635 635 635 635 635 635 635 635 635 635 635 635 635 635 635 635 635 635 635 635 635 12 635 635 635 635 635 635 0 635 635 635 635 635 635 635 635 635 635 635 635 635 635 26 635 635 635 635 635 635 635 635 635 635 12 635 635 635 635 635 635 635 635 635 635 635 2 635 635 635 635 635 635 635 635 635
635 635 635 635 635 635 635 635 635 635 635 635 635 635 635 635 635 635 635 635 8 635 635 635 635 635 635 635 635 635 635 635 635 635 635 635 6 635 635 635 5 635 635 635 635 635 635 635 635 0 635 635 635 635 635 10 635 635 635 635 635 635 635 635 635 635 8 635 635 635 635 635 635 635 635 635 635 635 635 635 635 635 635 635 635 635 635 635 635 13 635 635 635 635 635 635
635 635 635 635 635 635 635 635 635 635 635 635 4 635 635 635 635 635 635 635 635 635 635 635 635 635 635 635 635 635 635 635 635 635 635 635 635 635 635 635 635 635 635 10 635 635 635 635 635 635 0 635 635 635 635 635 635 635 635 635 635 635 635 635 635 635 635 635 635 635 635 20 635 635 635 635 635 635 635 635 635 635 635 635 635 635 635 635 635 635 635 635 635 12 635 635
635 14 635 635 635 635 635 635 635 635 635 635 635 635 635 635 635 635 635 635 635 635 635 635 635 6 635 18 635 635 635 635 635 635 635 635 635 635 635 635 635 635 635 635 635 635 635 635 635 635 635 0 635 635 635 635 635 635 635 635 635 635 635 635 635 635 635 635 635 635 635 635 635 635 635 635 635 13 635 635 19 635 635 635 635 635 635 635 635 635 635 635 635 635 635 635
635 635 635 635 635 8 14 635 635 635 635 635 635 635 635 635 635 635 635 9 635 6 635 635 635 635 635 635 635 5 635 635 635 6 635 635 635 635 635 635 635 635 635 635 635 635 635 635 635 635 635 635 0 635 635 635 635 635 635 635 12 635 635 635 635 635 635 635 635 635 635 635 635 635 635 635 635 635 635 635 635 635 635 635 635 635 635 635 635 635 635 635 635 635 635 635
635 635 635 635 635 635 635 635 635 635 635 635 635 635 635 635 635 635 635 7 635 635 635 635 635 635 635 635 635 635 635 635 635 6 635 635 635 635 635 635 635 635 635 635 635 635 635 635 635 635 635 635 635 0 635 635 635 635 635 635 635 2 635 635 635 635 635 635 635 635 635 635 635 635 635 635 635 635 14 635 635 635 635 635 635 635 635 635 635 635 635 635 635 635 635 635
635 635 635 635 635 635 635 635 635 635 635 635 635 635 635 635 635 635 635 635 635 635 635 14 635 635 635 635 635 635 635 635 635 635 635 635 635 635 635 635 635 635 635 13 635 635 635 635 635 635 635 635 635 635 0 635 635 635 635 635 635 635 635 635 635 635 635 635 635 635 635 6 635 635 635 635 635 53 635 635 635 635 635 11 635 635 635 635 635 635 635 635 635 635 635 635
635 635 635 635 635 635 635 635 635 635 635 635 635 635 635 635 635 635 635 635 635 635 635 635 635 635 635 635 635 635 10 635 635 635 16 635 10 635 635 635 635 635 635 635 635 635 635 635 635 10 635 635 635 635 635 0 635 635 635 635 635 635 635 635 635 635 635 635 635 635 635 635 17 635 635 635 12 635 635 635 635 635 635 635 635 635 635 20 635 13 635 635 635 635 635 635
635 635 635 635 635 635 12 635 635 635 635 635 635 635 635 635 20 635 635 635 635 635 635 635 635 635 635 635 635 635 635 635 635 635 635 635 635 635 635 635 635 635 635 635 635 12 635 635 635 635 635 635 635 635 635 635 0 635 635 635 6 635 635 635 635 635 635 635 635 635 635 635 635 635 6 635 635 635 635 635 635 635 635 635 635 635 635 635 635 635 635 635 635 635 635 635
635 635 13 635 3 635 635 635 635 635 635 635 25 635 635 635 635 635 635 18 635 635 635 635 635 635 635 635 635 635 635 19 635 635 635 635 635 635 635 635 635 635 635 635 635 635 635 635 635 635 635 635 635 635 635 635 635 0 635 635 635 635 635 635 635 635 635 635 635 635 635 635 635 635 635 635 635 635 8 635 635 635 635 635 635 635 635 635 635 635 635 635 635 17 635 635
635 635 635 635 635 635 635 12 635 635 635 635 635 635 635 635 635 635 635 635 635 5 635 635 635 635 635 635 3 7 635 635 635 635 635 635 635 635 635 635 635 635 3 635 635 635 635 635 635 635 635 635 635 635 635 635 635 635 0 635 635 635 635 635 635 635 635 635 635 635 635 635 635 635 635 635 635 635 635 635 635 635 635 635 635 635 635 635 635 635 635 635 635 635 635 635
635 635 635 635 635 635 635 635 635 635 635 635 635 635 635 635 635 635 635 635 635 635 635 635 635 635 635 635 635 635 635 635 635 635 635 4 635 635 635 16 635 635 635 635 635 635 635 635 635 635 635 635 635 635 635 635 635 635 635 0 635 635 635 635 635 635 635 635 4 635 635 635 635 635 635 635 635 635 635 635 635 635 635 635 635 635 635 635 635 635 635 635 635 635 635 4
635 635 635 635 635 10 12 635 635 635 635 635 635 635 635 635 635 635 635 635 635 635 635 635 635 635 635 635 635 635 635 635 635 635 635 635 635 635 635 635 635 635 635 635 635 7 635 635 635 635 635 635 12 635 635 635 6 635 635 635 0 635 635 635 635 635 635 635 635 635 635 635 635 635 635 635 635 635 635 635 635 635 635 635 635 635 635 635 635 635 635 635 635 635 635 635
635 635 635 635 635 635 635 9 635 635 635 635 635 635 635 635 635 635 635 635 635 635 635 635 635 635 635 635 635 635 635 635 635 7 635 635 635 635 635 635 635 635 635 635 635 635 635 635 635 635 635 635 635 2 635 635 635 635 635 635 635 0 635 635 635 635 635 635 635 635 635 635 635 635 635 635 635 635 14 635 635 635 635 635 635 635 635 635 635 635 635 635 7 635 635 635
635 12 635 635 635 635 635 635 635 13 8 635 635 635 635 635 635 635 635 635 635 635 635 635 635 635 635 13 635 635 635 635 54 635 635 635 635 635 635 635 635 635 635 635 635 635 635 10 635 635 635 635 635 635 635 635 635 635 635 635 635 635 0 635 635 635 635 635 635 635 635 635 635 635 635 635 635 635 635 635 635 635 635 635 635 635 635 635 635 635 635 635 635 635 13 635
635 635 635 635 635 635 15 635 635 635 635 635 635 635 635 635 635 635 17 635 635 635 635 635 635 635 635 635 635 635 635 8 635 635 635 635 635 15 635 635 635 23 635 635 635 635 635 635 26 635 635 635 635 635 635 635 635 635 635 635 635 635 635 0 635 635 635 635 635 635 635 635 635 635 24 635 635 635 635 635 635 635 13 635 635 635 635 635 635 635 635 635 635 635 635 635
635 635 635 635 635 635 635 635 635 635 635 15 635 6 635 635 635 635 635 635 635 635 635 635 635 635 635 635 635 635 635 635 635 635 635 635 635 635 635 635 635 635 635 635 635 635 635 635 635 635 635 635 635 635 635 635 635 635 635 635 635 635 635 635 0 635 635 635 635 635 635 635 635 635 635 8 635 635 635 635 635 12 635 635 635 14 635 635 635 635 635 635 635 635 635 635
13 635 635 635 635 635 635 635 635 635 635 635 635 635 19 635 635 635 635 635 635 635 635 635 635 635 635 635 635 635 635 635 635 635 635 635 4 635 635 635 6 635 635 635 635 635 635 635 635 635 635 635 635 635 635 635 635 635 635 635 635 635 635 635 635 0 635 635 635 635 635 635 635 635 635 635 1 635 635 635 635 635 635 635 635 635 635 635 635 635 635 635 635 635 635 635
635 635 635 9 635 635 635 635 635 635 635 635 635 635 635 635 635 635 635 635 3 635 635 635 635 635 635 635 635 635 635 635 635 635 635 635 635 635 635 635 635 635 635 635 635 635 635 635 635 8 635 635 635 635 635 635 635 635 635 635 635 635 635 635 635 635 0 635 635 635 635 635 635 635 635 635 635 635 635 635 635 635 635 635 635 635 635 635 635 9 635 635 635 635 635 635
635 635 635 635 635 635 635 635 635 635 635 635 635 635 635 635 635 635 635 635 635 635 635 10 2 635 635 635 635 635 635 635 635 635 635 635 635 12 635 635 635 635 635 635 635 635 635 635 635 635 635 635 635 635 635 635 635 635 635 635 635 635 635 635 635 635 635 0 635 635 635 635 635 635 635 635 635 635 635 635 635 635 15 635 635 635 635 635 635 635 9 635 635 635 635 635
635 635 635 635 635 635 635 635 635 635 635 635 635 635 635 635 635 635 635 635 635 635 635 635 635 635 635 635 635 635 7 635 635 635 14 7 635 635 635 15 635 635 635 635 635 635 15 635 635 635 635 635 635 635 635 635 635 635 635 4 635 635 635 635 635 635 635 635 0 635 7 635 635 635 635 635 635 635 635 635 635 635 635 635 635 635 635 635 635 635 635 635 635 635 635 635
635 635 635 635 635 635 635 635 26 635 635 635 635 635 635 635 635 635 635 635 53 635 635 635 635 635 635 635 635 635 635 635 635 635 635 635 635 635 12 635 635 635 25 635 25 635 635 635 635 635 635 635 635 635 635 635 635 635 635 635 635 635 635 635 635 635 635 635 635 0 635 635 635 635 635 635 635 635 635 635 635 635 635 635 635 635 635 635 635 635 635 635 635 635 635 635
635 635 635 635 635 635 635 635 635 635 635 635 635 635 635 635 635 635 635 635 635 635 635 635 635 635 635 635 635 635 4 635 635 635 635 10 635 635 635 635 635 635 635 635 635 635 635 635 635 635 635 635 635 635 635 635 635 635 635 635 635 635 635 635 635 635 635 635 7 635 0 635 10 635 635 635 635 635 635 635 635 635 635 635 635 635 635 635 635 635 635 635 635 635 635 635
635 635 635 635 635 635 635 635 635 635 635 635 635 635 635 635 635 635 635 635 635 635 635 635 635 635 635 635 635 635 635 635 635 635 635 635 635 635 635 635 635 635 635 15 635 635 635 635 635 635 20 635 635 635 6 635 635 635 635 635 635 635 635 635 635 635 635 635 635 635 635 0 635 635 635 635 635 635 635 635 635 635 635 8 635 635 635 635 3 635 635 635 635 20 635 635
635 635 635 635 635 635 635 635 635 635 635 635 635 635 635 13 18 635 635 635 635 635 635 635 635 635 635 635 635 635 13 635 635 635 635 17 635 635 635 635 635 635 635 635 635 635 635 635 635 635 635 635 635 635 635 17 635 635 635 635 635 635 635 635 635 635 635 635 635 635 10 635 0 635 18 635 635 635 635 635 635 635 635 635 635 635 635 17 635 635 635 635 635 635 635 635
635 635 635 635 635 2 635 635 635 635 635 635 635 635 635 635 635 635 635 635 635 2 635 635 635 635 635 635 2 635 635 635 635 635 635 635 635 635 635 635 635 635 635 635 635 635 635 635 635 635 635 635 635 635 635 635 635 635 635 635 635 635 635 635 635 635 635 635 635 635 635 635 635 0 635 635 635 635 635 635 635 635 635 635 635 635 635 635 635 635 635 635 635 635 635 635
635 635 635 635 635 635 16 635 635 635 635 635 635 635 635 10 22 635 635 635 635 635 635 635 635 635 635 635 635 635 635 635 635 635 635 635 635 635 635 635 635 635 635 635 635 635 635 635 12 635 635 635 635 635 635 635 6 635 635 635 635 635 635 24 635 635 635 635 635 635 635 635 18 635 0 635 635 635 635 635 635 635 635 635 635 635 635 635 635 635 635 635 635 635 635 635
635 635 635 635 635 635 635 635 635 14 6 635 635 9 635 635 635 635 635 635 635 635 635 635 635 635 635 635 635 635 635 635 635 635 635 635 635 635 635 635 635 635 635 635 635 635 635 635 635 635 635 635 635 635 635 635 635 635 635 635 635 635 635 635 8 635 635 635 635 635 635 635 635 635 635 0 635 635 635 635 635 635 635 635 635 17 635 635 635 635 635 635 635 635 4 635
12 635 635 635 635 635 635 635 635 635 635 635 635 635 635 635 635 635 635 635 635 635 635 635 635 635 8 635 635 635 635 635 635 635 10 635 5 635 635 635 635 635 635 635 635 635 635 635 635 635 635 635 635 635 635 12 635 635 635 635 635 635 635 635 635 1 635 635 635 635 635 635 635 635 635 635 0 635 635 635 635 635 635 635 635 635 635 635 635 635 635 635 635 635 635 635
635 635 635 635 635 635 635 635 635 635 635 635 635 635 635 635 635 19 635 635 635 635 635 39 635 8 635 31 635 635 635 635 635 635 635 635 635 635 635 635 635 635 635 635 635 635 635 635 635 635 635 13 635 635 53 635 635 635 635 635 635 635 635 635 635 635 635 635 635 635 635 635 635 635 635 635 635 0 635 635 635 635 635 635 17 635 635 635 635 635 635 635 635 635 635 635
635 635 635 635 6 635 635 635 635 635 635 635 635 635 635 635 635 635 635 14 635 635 635 635 635 635 635 635 635 635 635 635 635 635 635 635 635 635 46 635 635 635 635 635 635 635 635 635 635 635 635 635 635 14 635 635 635 8 635 635 635 14 635 635 635 635 635 635 635 635 635 635 635 635 635 635 635 635 0 635 635 635 635 635 635 635 635 635 635 635 635 635 20 635 635 635
635 635 635 635 635 635 635 635 635 635 635 635 635 635 635 635 635 7 635 635 635 635 635 635 16 635 635 635 635 635 635 635 635 635 635 635 635 635 635 635 635 15 635 635 635 635 635 635 635 635 635 635 635 635 635 635 635 635 635 635 635 635 635 635 635 635 635 635 635 635 635 635 635 635 635 635 635 635 635 0 635 635 17 635 9 635 635 635 635 635 635 13 635 635 635 635
635 17 635 635 635 635 635 635 635 12 635 635 635 635 635 635 635 12 635 635 635 635 5 635 635 17 635 635 635 635 635 635 635 635 635 635 635 635 635 635 635 635 635 635 635 635 635 635 635 635 635 19 635 635 635 635 635 635 635 635 635 635 635 635 635 635 635 635 635 635 635 635 635 635 635 635 635 635 635 635 0 635 635 635 635 12 635 635 635 635 635 635 635 635 635 635
635 635 635 635 635 635 635 635 635 635 635 19 635 15 635 635 635 635 635 635 635 635 635 635 635 635 635 635 635 635 635 635 635 635 635 6 635 635 635 635 635 635 635 635 635 635 635 635 635 635 635 635 635 635 635 635 635 635 635 635 635 635 635 635 12 635 635 635 635 635 635 635 635 635 635 635 635 635 635 635 635 0 635 635 635 635 635 635 635 635 635 635 635 635 635 2
635 635 635 635 635 635 635 635 635 635 635 635 635 635 635 635 635 635 635 635 635 635 635 635 15 635 635 635 635 635 635 635 635 635 635 635 635 13 635 635 635 15 635 635 635 635 635 635 635 635 635 635 635 635 635 635 635 635 635 635 635 635 635 13 635 635 635 15 635 635 635 635 635 635 635 635 635 635 635 17 635 635 0 635 635 635 635 635 635 635 635 635 635 635 635 635
635 635 635 635 635 635 635 635 635 635 635 635 635 635 635 635 635 635 635 635 635 635 635 6 635 635 635 635 635 635 635 635 635 635 635 635 635 635 635 635 635 635 635 635 635 635 635 635 635 635 635 635 635 635 11 635 635 635 635 635 635 635 635 635 635 635 635 635 635 635 635 8 635 635 635 635 635 635 635 635 635 635 635 0 635 635 635 635 7 635 2 635 635 635 635 635
635 635 635 635 635 635 635 635 635 635 635 635 635 635 635 635 635 10 635 635 635 635 635 25 15 635 635 635 635 635 635 635 635 635 635 635 635 635 635 635 635 635 635 635 635 635 635 635 635 635 635 635 635 635 635 635 635 635 635 635 635 635 635 635 635 635 635 635 635 635 635 635 635 635 635 635 635 17 635 9 635 635 635 635 0 635 635 635 635 635 635 635 635 635 635 635
635 635 635 635 635 635 635 635 635 14 635 1 635 635 635 635 635 635 635 635 635 635 11 635 635 635 635 635 635 635 635 635 635 635 635 635 635 635 635 635 635 635 635 635 635 635 635 635 635 635 635 635 635 635 635 635 635 635 635 635 635 635 635 635 14 635 635 635 635 635 635 635 635 635 635 17 635 635 635 635 12 635 635 635 635 0 635 635 635 635 635 635 635 635 635 635
635 635 635 635 635 635 635 635 635 635 635 20 635 635 635 9 635 635 635 635 635 635 635 635 635 635 635 635 635 635 635 635 635 635 635 21 635 635 635 635 635 12 635 635 635 635 635 635 2 635 635 635 635 635 635 635 635 635 635 635 635 635 635 635 635 635 635 635 635 635 635 635 635 635 635 635 635 635 635 635 635 635 635 635 635 635 0 635 635 635 635 13 635 635 635 635
635 635 635 14 635 635 635 635 20 635 635 635 635 635 635 635 7 635 635 635 635 635 635 635 635 635 635 635 635 635 635 635 635 635 635 635 635 635 635 635 635 635 635 635 635 635 635 635 635 635 635 635 635 635 635 20 635 635 635 635 635 635 635 635 635 635 635 635 635 635 635 635 17 635 635 635 635 635 635 635 635 635 635 635 635 635 635 0 635 11 635 635 635 635 635 635
635 635 635 635 635 635 635 635 635 635 635 635 635 635 635 635 635 635 8 635 635 635 635 635 635 635 635 635 635 635 635 635 635 635 635 635 635 635 635 635 635 635 635 635 635 635 635 635 635 635 635 635 635 635 635 635 635 635 635 635 635 635 635 635 635 635 635 635 635 635 635 3 635 635 635 635 635 635 635 635 635 635 635 7 635 635 635 635 0 635 8 635 635 19 635 635
635 635 635 5 635 635 635 635 635 635 635 635 635 635 635 635 635 635 635 635 635 635 635 635 635 635 635 635 635 635 635 635 635 635 635 635 635 635 635 635 635 635 635 635 635 635 635 635 635 13 635 635 635 635 635 13 635 635 635 635 635 635 635 635 635 635 9 635 635 635 635 635 635 635 635 635 635 635 635 635 635 635 635 635 635 635 635 11 635 0 635 635 635 635 635 635
635 635 635 635 635 635 635 635 635 635 635 635 635 635 635 635 635 635 9 635 635 635 635 6 635 635 635 635 635 635 635 635 635 635 635 635 635 10 635 635 635 635 635 635 635 635 635 635 635 635 635 635 635 635 635 635 635 635 635 635 635 635 635 635 635 635 635 9 635 635 635 635 635 635 635 635 635 635 635 635 635 635 635 2 635 635 635 635 8 635 0 635 635 635 635 635
635 635 635 635 635 635 635 635 635 635 635 15 635 635 635 635 635 15 635 635 635 635 12 635 635 635 635 635 635 635 635 635 635 635 635 635 635 635 635 635 635 5 635 635 635 635 635 635 635 635 635 635 635 635 635 635 635 635 635 635 635 635 635 635 635 635 635 635 635 635 635 635 635 635 635 635 635 635 635 13 635 635 635 635 635 635 13 635 635 635 635 0 635 635 635 635
635 635 635 635 635 635 635 5 635 635 635 635 635 635 635 635 635 635 635 635 635 635 635 635 635 635 635 635 635 635 635 635 635 635 635 635 635 635 28 635 635 635 635 635 5 635 635 635 635 635 635 635 635 635 635 635 635 635 635 635 635 7 635 635 635 635 635 635 635 635 635 635 635 635 635 635 635 635 20 635 635 635 635 635 635 635 635 635 635 635 635 635 0 635 635 635
635 635 6 635 635 635 635 635 635 635 635 635 11 635 635 635 635 635 20 635 635 635 635 635 635 635 635 635 635 635 635 635 635 635 635 635 635 635 635 635 635 635 635 635 635 635 635 635 635 635 12 635 635 635 635 635 635 17 635 635 635 635 635 635 635 635 635 635 635 635 635 20 635 635 635 635 635 635 635 635 635 635 635 635 635 635 635 635 19 635 635 635 635 0 635 635
635 635 635 635 635 635 635 635 635 635 5 635 635 8 635 635 635 635 635 635 635 635 635 635 635 635 635 635 635 635 635 635 42 635 635 635 635 635 635 26 635 635 635 635 635 635 635 635 635 635 635 635 635 635 635 635 635 635 635 635 635 635 13 635 635 635 635 635 635 635 635 635 635 635 635 4 635 635 635 635 635 635 635 635 635 635 635 635 635 635 635 635 635 635 0 635
635 635 635 635 635 635 635 635 635 635 635 635 635 16 635 635 635 635 635 635 635 635 635 635 635 635 635 635 635 635 635 635 635 635 635 5 635 635 635 15 635 635 635 635 635 635 635 635 635 635 635 635 635 635 635 635 635 635 635 4 635 635 635 635 635 635 635 635 635 635 635 635 635 635 635 635 635 635 635 635 635 2 635 635 635 635 635 635 635 635 635 635 635 635 635 0
EOF
